NAME: cum70.tsp
TYPE: TSP
COMMENT: User-generated TSP file
DIMENSION: 350
EDGE_WEIGHT_TYPE: EUC_2D
NODE_COORD_SECTION
1 85.0 234.0
2 103.0 43.0
3 217.0 148.0
4 68.0 169.0
5 107.0 252.0
6 29.0 88.0
7 148.0 316.0
8 207.0 315.0
9 56.0 18.0
10 269.0 271.0
11 311.0 262.0
12 266.0 49.0
13 267.0 213.0
14 116.0 281.0
15 339.0 322.0
16 242.0 9.0
17 88.0 172.0
18 172.0 17.0
19 25.0 208.0
20 210.0 44.0
21 169.0 309.0
22 145.0 207.0
23 152.0 52.0
24 96.0 23.0
25 335.0 138.0
26 135.0 340.0
27 56.0 267.0
28 221.0 331.0
29 266.0 74.0
30 214.0 324.0
31 350.0 192.0
32 218.0 39.0
33 115.0 30.0
34 337.0 35.0
35 214.0 105.0
36 36.0 330.0
37 315.0 216.0
38 103.0 332.0
39 255.0 124.0
40 38.0 348.0
41 202.0 102.0
42 124.0 223.0
43 113.0 23.0
44 237.0 158.0
45 212.0 51.0
46 217.0 203.0
47 55.0 26.0
48 73.0 330.0
49 159.0 213.0
50 173.0 228.0
51 85.0 61.0
52 274.0 335.0
53 7.0 160.0
54 166.0 47.0
55 27.0 59.0
56 306.0 306.0
57 269.0 306.0
58 194.0 215.0
59 41.0 29.0
60 227.0 342.0
61 272.0 101.0
62 243.0 37.0
63 4.0 139.0
64 91.0 129.0
65 59.0 12.0
66 244.0 37.0
67 84.0 47.0
68 261.0 234.0
69 275.0 173.0
70 94.0 121.0
71 220.0 49.0
72 4.0 230.0
73 158.0 272.0
74 105.0 58.0
75 90.0 37.0
76 258.0 176.0
77 186.0 22.0
78 347.0 183.0
79 45.0 196.0
80 307.0 339.0
81 192.0 201.0
82 287.0 56.0
83 176.0 143.0
84 15.0 220.0
85 314.0 47.0
86 263.0 216.0
87 81.0 32.0
88 185.0 203.0
89 240.0 267.0
90 240.0 302.0
91 162.0 247.0
92 170.0 138.0
93 202.0 245.0
94 175.0 330.0
95 339.0 98.0
96 19.0 6.0
97 236.0 139.0
98 226.0 76.0
99 176.0 221.0
100 47.0 89.0
101 43.0 6.0
102 242.0 174.0
103 202.0 251.0
104 349.0 237.0
105 71.0 198.0
106 271.0 134.0
107 60.0 242.0
108 218.0 303.0
109 189.0 261.0
110 109.0 59.0
111 246.0 155.0
112 21.0 154.0
113 234.0 146.0
114 331.0 282.0
115 10.0 279.0
116 266.0 349.0
117 197.0 297.0
118 260.0 179.0
119 17.0 156.0
120 18.0 327.0
121 75.0 263.0
122 5.0 303.0
123 302.0 205.0
124 5.0 181.0
125 219.0 196.0
126 312.0 287.0
127 236.0 325.0
128 188.0 108.0
129 275.0 40.0
130 149.0 153.0
131 118.0 111.0
132 177.0 308.0
133 13.0 280.0
134 21.0 150.0
135 153.0 31.0
136 130.0 173.0
137 92.0 38.0
138 236.0 292.0
139 321.0 135.0
140 131.0 108.0
141 342.0 64.0
142 117.0 193.0
143 125.0 276.0
144 302.0 26.0
145 63.0 212.0
146 46.0 336.0
147 222.0 38.0
148 29.0 327.0
149 343.0 79.0
150 5.0 49.0
151 91.0 276.0
152 21.0 217.0
153 329.0 102.0
154 331.0 347.0
155 53.0 223.0
156 267.0 312.0
157 328.0 192.0
158 132.0 132.0
159 298.0 147.0
160 113.0 182.0
161 16.0 59.0
162 81.0 197.0
163 188.0 104.0
164 134.0 185.0
165 141.0 245.0
166 72.0 261.0
167 115.0 95.0
168 162.0 234.0
169 208.0 24.0
170 306.0 68.0
171 198.0 309.0
172 339.0 15.0
173 54.0 13.0
174 170.0 203.0
175 212.0 312.0
176 11.0 41.0
177 100.0 327.0
178 237.0 311.0
179 193.0 232.0
180 200.0 125.0
181 281.0 272.0
182 50.0 157.0
183 113.0 327.0
184 115.0 188.0
185 233.0 275.0
186 280.0 160.0
187 181.0 197.0
188 85.0 109.0
189 214.0 52.0
190 18.0 79.0
191 156.0 59.0
192 331.0 267.0
193 76.0 124.0
194 132.0 316.0
195 83.0 322.0
196 189.0 207.0
197 116.0 308.0
198 200.0 34.0
199 95.0 181.0
200 251.0 135.0
201 294.0 46.0
202 346.0 261.0
203 34.0 332.0
204 274.0 88.0
205 260.0 117.0
206 181.0 331.0
207 202.0 125.0
208 226.0 151.0
209 196.0 161.0
210 173.0 337.0
211 223.0 269.0
212 213.0 132.0
213 259.0 192.0
214 161.0 95.0
215 343.0 9.0
216 267.0 77.0
217 229.0 174.0
218 276.0 218.0
219 275.0 105.0
220 254.0 184.0
221 275.0 63.0
222 6.0 316.0
223 272.0 316.0
224 243.0 261.0
225 330.0 45.0
226 297.0 82.0
227 109.0 115.0
228 116.0 178.0
229 309.0 114.0
230 308.0 263.0
231 300.0 98.0
232 163.0 337.0
233 105.0 252.0
234 130.0 239.0
235 154.0 349.0
236 178.0 83.0
237 57.0 142.0
238 152.0 148.0
239 170.0 224.0
240 150.0 264.0
241 136.0 25.0
242 340.0 126.0
243 30.0 115.0
244 63.0 130.0
245 242.0 204.0
246 110.0 300.0
247 290.0 164.0
248 16.0 9.0
249 140.0 207.0
250 219.0 73.0
251 126.0 16.0
252 294.0 185.0
253 330.0 302.0
254 83.0 178.0
255 252.0 72.0
256 229.0 95.0
257 183.0 98.0
258 212.0 217.0
259 30.0 197.0
260 90.0 350.0
261 210.0 332.0
262 278.0 21.0
263 276.0 97.0
264 66.0 141.0
265 265.0 214.0
266 264.0 249.0
267 93.0 233.0
268 21.0 311.0
269 71.0 332.0
270 30.0 249.0
271 107.0 50.0
272 133.0 23.0
273 89.0 178.0
274 226.0 171.0
275 116.0 264.0
276 208.0 65.0
277 251.0 24.0
278 209.0 289.0
279 220.0 41.0
280 285.0 22.0
281 155.0 346.0
282 348.0 28.0
283 140.0 210.0
284 313.0 147.0
285 84.0 323.0
286 59.0 33.0
287 31.0 10.0
288 164.0 205.0
289 250.0 126.0
290 81.0 119.0
291 268.0 323.0
292 209.0 314.0
293 311.0 152.0
294 312.0 345.0
295 269.0 80.0
296 141.0 3.0
297 207.0 288.0
298 313.0 323.0
299 223.0 162.0
300 278.0 318.0
301 275.0 320.0
302 236.0 55.0
303 67.0 115.0
304 266.0 95.0
305 65.0 233.0
306 119.0 233.0
307 276.0 131.0
308 79.0 252.0
309 87.0 16.0
310 62.0 138.0
311 100.0 143.0
312 323.0 167.0
313 108.0 186.0
314 223.0 322.0
315 219.0 316.0
316 281.0 205.0
317 214.0 149.0
318 164.0 202.0
319 318.0 73.0
320 155.0 347.0
321 266.0 207.0
322 192.0 186.0
323 3.0 79.0
324 318.0 89.0
325 35.0 47.0
326 107.0 311.0
327 144.0 15.0
328 208.0 100.0
329 37.0 171.0
330 258.0 31.0
331 93.0 105.0
332 65.0 241.0
333 276.0 49.0
334 27.0 159.0
335 61.0 6.0
336 62.0 103.0
337 254.0 236.0
338 152.0 9.0
339 250.0 244.0
340 186.0 62.0
341 275.0 112.0
342 221.0 80.0
343 234.0 158.0
344 204.0 175.0
345 132.0 280.0
346 30.0 36.0
347 119.0 46.0
348 168.0 148.0
349 63.0 343.0
350 116.0 316.0
EOF

